DIMENSION: 6
EDGE_WEIGHT_TYPE: EXPLICIT
EDGE_WEIGHT_FORMAT: FULL_MATRIX
EDGE_WEIGHT_SECTION:
32767 40 33 30 21 4 
40 32767 56 66 97 86 
33 56 32767 66 100 32767 
30 66 66 32767 2 100 
21 97 100 2 32767 84 
4 86 32767 100 84 32767 
EOF